0 4828
2401 4736
4802 4646
7203 4564
9604 4506
12005 4450
14406 4393
16807 4340
19208 4310
21609 4261
24010 4232
26411 4191
28812 4168
31213 4155
33614 4153
36015 4142
38416 4141
40817 4130
43218 4116
45619 4115
48020 4095
50421 4089
52822 4088
55223 4086
57624 4081
60025 4066
62426 4062
64827 4059
